 $BASIS GBASIS=PC1 $END
 $CONTRL COORD=ZMT ISPHER=1 RUNTYP=ENERGY DFTTYP=PBE $END

 $DATA 
Title
Cnv 2

S    
O 1 1.90 
O 1 1.90 2 120.0
 $END