 $BASIS GBASIS=PC1 $END
 $CONTRL COORD=ZMT ISPHER=1 RUNTYP=ENERGY DFTTYP=PBE $END

 $DATA 
Title
Cnv 2

S    
O 1 1.10 
O 1 1.10 2 180.0
 $END